\ENCODING=ISO-8859-1
\Problem name: cutting_stock

Minimize
 obj: x1 + x2 + x3 + x4 + x5 + x6
Subject To
 c1: 2 x1 >= 337
 c2: 3 x2 >= 415
 c3: 3 x3 >= 263
 c4: 4 x4 >= 736
 c5: 5 x5 >= 393
 c6: 11 x6 >= 140
Bounds
 337 <= x1 <= 2147483647
 415 <= x2 <= 2147483647
 263 <= x3 <= 2147483647
 736 <= x4 <= 2147483647
 393 <= x5 <= 2147483647
 140 <= x6 <= 2147483647
End
